%chk=mol.chk
%nprocshared=1
#p opt=(calcall,loose,ts,noeigen,cartesian,nomicro,maxcycles=200) nosym external='./gau_lmp.sh'

Title Card Required

0 2
 C                 -1.34736901   -0.33939293   -0.20437465
 C                 -0.16841848   -0.66046766   -0.58795298
 O                  0.32217052   -1.39388466    0.59211102
 O                  0.57325500   -0.54257400    1.69194100
 O                  0.96355100    0.06533700   -1.25267300
 C                  0.67907700    1.31155300   -0.92555200
 H                  1.33833200    2.16277700   -1.23968300
 O                 -0.49830000    1.58123500   -0.22081200
 H                 -1.89196601   -0.30103893    0.76420335
 H                 -1.95971701   -0.49533893   -1.09754565
 H                 -0.52072948   -1.37265066   -1.34769598
 H                  0.44604400   -0.97043300    2.53428000

