%chk=mol.chk
%nproc=1
#p opt=(calcall,loose,ts,noeigen,cartesian,nomicro,maxcycles=200) nosym external='./xtb.sh'

 Timestep 2550 OO[C@H]1CO[CH]O1:O[C@H]1CO[CH]O1,[O]: -1022.00 90.15 272.20 314.08

0  2
C           1.02718         0.01006        -0.67987
C          -0.41495         0.06249        -0.48188
O          -0.68058         1.19519         0.55539
O          -0.93138         2.41272        -0.52841
O          -0.83703        -1.25802         0.10954
C           0.36526        -1.69259         0.86584
H           0.40532        -2.79357         1.03888
O           1.55889        -1.15665         0.22199
H           1.58791         0.91299        -0.35583
H           1.30611        -0.27062        -1.71705
H          -1.01069         0.29342        -1.39463
H           0.18963         2.22134         0.26609

