%chk=mol.chk
%nproc=1
#p opt=(calcall,loose,ts,noeigen,cartesian,nomicro,maxcycles=200) nosym external='./xtb.sh'

 Timestep 11055 OO[C@H]1CO[CH]O1:C=COC=O,O[O]: -1049.57 92.28 453.72 501.51

0  2
C          -0.83188         1.97686        -1.06917
C          -0.55516         2.34798        -0.01181
O           0.10998        -2.95477        -0.16434
O          -0.02385        -2.60153         1.21357
O           0.44305         1.46316         0.87206
C           0.69254         0.34664         0.07112
H           1.29839        -0.52196         0.46726
O           0.10467         0.31313        -1.11308
H          -0.34219         2.46517        -1.94157
H          -1.88301         1.67273        -1.26063
H          -1.40802         2.51695         0.69074
H           0.55099        -1.80140         1.24970

