%chk=mol.chk
%nproc=1
#p opt=(calcall,loose,cartesian,nomicro,maxcycles=200) nosym external='./xtb.sh'

 Timestep 5679 O=O,OO[C@H]1CO[CH]O1:[O]O[C@H]1OC[C@H](O1)OO: -1222.74 228.11 406.31 529.13

0  2
C          -1.55178        -1.17614        -0.28920
C          -1.47895         0.25468        -0.10604
O          -1.08402         0.87673        -1.45330
O          -0.80346         2.29623        -1.12871
O          -0.34773         0.50409         0.89457
C           0.30575        -0.78279         1.02952
H           0.09956        -1.20842         2.04539
O          -0.09102        -1.69650         0.00903
H          -1.82673        -1.52656        -1.30416
H          -2.18719        -1.62982         0.49649
H          -2.36128         0.82869         0.27115
H           0.00989         2.17225        -0.62941
O           2.20151        -0.53300         1.17045
O           2.56547        -0.08216        -0.02365

