%chk=mol.chk
%nproc=1
#p opt=(calcall,loose,ts,noeigen,cartesian,nomicro,maxcycles=200) nosym external='./xtb.sh'

 Timestep 1011 OO[C@H]1CO[CH]O1:OO[CH]O[C@H]1CO1: -1033.31 78.21 293.00 336.69

0  2
C          -0.30142        -1.56219        -0.15913
C           0.02520         0.13514        -0.55772
O          -1.31764         0.91931        -0.33280
O          -1.10178         2.32658        -0.62577
O           1.02776         0.56892         0.41244
C           1.29807        -0.93769         0.25529
H           2.18086        -1.26201        -0.33916
O           0.56793        -1.88651         1.09271
H          -0.16985        -2.32892        -0.95675
H          -1.32958        -1.61911         0.29106
H           0.35946         0.41729        -1.58886
H          -0.14280         2.36506        -0.57930

