%chk=mol.chk
%nproc=1
#p opt=(calcall,loose,ts,noeigen,cartesian,nomicro,maxcycles=200) nosym external='./xtb.sh'

 Timestep 140279 OO[C@H]1CO[CH]O1:[CH2][C@H](O[O])OC=O,[H]: -1033.47 97.92 259.70 305.94

0  2
C           1.27095        -0.63375         0.57434
C          -0.13991        -0.39647         0.62451
O          -0.77781        -1.20773        -0.60071
O          -2.14759        -1.09977        -0.45664
O          -0.40823         1.08854         0.41170
C           0.83215         1.70974        -0.09559
H           0.67846         2.45237        -0.91497
O           1.83059         0.72392        -0.32892
H           1.62388        -1.51290         0.01943
H           1.75198        -0.51350         1.55153
H          -0.70934        -0.69361         1.53583
H          -2.88036         0.02871         0.12887

