%chk=mol.chk
%nproc=1
#p opt=(calcall,loose,cartesian,nomicro,maxcycles=200) nosym external='./xtb.sh'

 Timestep 1311 OO[C@H]1CO[CH]O1:[CH2]O[C@H]1O[C@H]1OO: -1017.73 105.09 252.16 309.44

0  2
C          -1.68690        -0.41814         0.61264
C          -0.05902         0.12018         0.45916
O           0.03600         1.44723        -0.39542
O           1.44585         1.81475        -0.23413
O           1.26898        -0.72510         0.39926
C           0.36337        -1.12697        -0.60938
H           0.72026        -1.98359        -1.20783
O          -1.57269        -1.51676        -0.25218
H          -2.46163         0.29383         0.22158
H          -1.94872        -0.79535         1.63200
H           0.10877         0.53399         1.49001
H           1.35719         2.73705         0.01029

