%chk=mol.chk
%nproc=1
#p opt=(calcall,loose,ts,noeigen,cartesian,nomicro,maxcycles=200) nosym external='./xtb.sh'

 Timestep 8808 OO[C@H]1CO[CH]O1:OO[C@H]1C[C@H](O1)[O]: -1039.45 78.40 279.06 307.13

0  2
C           0.32245        -1.14409        -0.36325
C          -0.58712        -0.05248         0.00083
O          -1.19937         0.70296        -1.23719
O          -0.19260         1.70630        -1.55277
O           0.11267         0.71836         1.01059
C           1.04289        -0.50820         1.11470
H           2.12022        -0.24201         1.29647
O           0.64542        -1.75471         1.34245
H           1.20128        -1.03536        -1.04045
H          -0.30060        -2.02808        -0.65271
H          -1.50760        -0.47328         0.48764
H          -0.72540         2.30147        -2.11764

