%chk=mol.chk
%nproc=1
#p opt=(calcall,loose,cartesian,nomicro,maxcycles=200) nosym external='./xtb.sh'

 Timestep 1786 OO[C@H]1CO[CH]O1:OO[C@H]1O[C@H]2[C@H]1O2,[H]: -1047.91 88.73 249.76 282.79

0  2
C          -0.32541        -0.59084         1.32926
C           0.56664         0.20868         0.36856
O          -0.21219         1.47854        -0.01950
O           0.62758         2.13907        -1.03551
O           0.72473        -0.68312        -0.78199
C          -0.07761        -1.71294         0.02523
H          -0.16280        -2.66960        -0.55543
O          -1.40844        -1.20041         0.38177
H          -0.79390        -0.09066         2.21495
H           0.60515        -1.72371         1.57343
H           1.57062         0.53750         0.74116
H           1.08811         1.38863        -1.40932

