%chk=mol.chk
%nproc=1
#p opt=(calcall,loose,cartesian,nomicro,maxcycles=200) nosym external='./xtb.sh'

 Timestep 9504 OO[C@H]1CO[CH]O1:OO[C]1COCO1: -1053.75 83.22 258.23 294.46

0  2
C          -1.11274         0.60757         0.13783
C           0.17506         0.07381         0.31777
O           1.30322         1.11196         0.43902
O           1.67629         1.24249        -0.98016
O           0.35180        -1.10568        -0.48780
C          -0.78639        -1.51713         0.47621
H          -0.98053        -2.60525         0.52216
O          -1.96479        -0.64368         0.24406
H          -1.29066         1.05576        -0.85697
H          -1.42511         1.30367         0.93973
H          -0.08146        -0.74977         1.64079
H           2.63166         1.34927        -0.89170

