%chk=mol.chk
%nproc=1
#p opt=(calcall,loose,cartesian,nomicro,maxcycles=200) nosym external='./xtb.sh'

 Timestep 427608 OO[C@H]1CO[CH]O1:[CH2][C@H](OC=O)[O],[OH]: -1051.49 127.62 230.22 239.93

0  2
C           1.03595        -1.06506        -0.16628
C          -0.42401        -0.92290        -0.25709
O          -0.93828        -0.33723        -1.50418
O          -0.20444         1.17338        -1.59094
O          -0.95035         0.05462         0.97615
C           0.16554         0.62045         1.58815
H           0.02602         1.54567         2.21341
O           1.37273         0.24442         1.20218
H           1.63377        -0.67367        -0.99205
H           1.42201        -1.98034         0.28376
H          -0.98541        -1.88685        -0.10790
H           0.07127         1.27294        -0.72496

