%chk=mol.chk
%nproc=1
#p opt=(calcall,loose,ts,noeigen,cartesian,nomicro,maxcycles=200) nosym external='./xtb.sh'

 Timestep 2455 O=O,OO[C@H]1CO[CH]O1:OO[C@H]1[CH]O[CH]O1,O[O]: -1175.98 261.13 437.59 556.86

0  2
C          -0.33036        -1.19221        -0.26170
C          -0.79972         0.05378        -0.79905
O           0.31418         0.74252        -1.61802
O          -0.42880         1.71225        -2.44587
O          -1.23500         0.94155         0.36354
C          -1.16344         0.04593         1.53624
H          -2.07395         0.10708         2.17631
O          -0.91338        -1.38988         1.05138
H           1.14694        -1.30408         0.20272
H          -0.59163        -2.03571        -0.91769
H          -1.69556         0.02144        -1.48555
H          -1.33281         1.55448        -2.10236
O           2.33114        -1.04778         0.82602
O           1.94033        -0.03404         1.60011

