%chk=mol.chk
%nproc=1
#p opt=(calcall,loose,ts,noeigen,cartesian,nomicro,maxcycles=200) nosym external='./xtb.sh'

 Timestep 313352 OO[C@H]1CO[CH]O1:C1O[C@H]2[C@H]1O2,[OH],[O]: -1023.93 103.09 254.10 292.14

0  2
C           0.30069        -0.88024        -1.26623
C           0.50785        -0.33530         0.13234
O          -0.90852        -0.94370         1.03911
O          -0.19657        -0.27448         2.41273
O           1.02178         1.14017        -0.11295
C          -0.28584         1.02738        -0.67995
H          -0.78376         2.03268        -0.74170
O          -0.33601         0.33113        -1.95870
H          -0.38930        -1.74229        -1.35385
H           1.24783        -1.07630        -1.81143
H           1.33280        -0.79500         0.73535
H          -0.98050        -0.19304         2.87742

