%chk=mol.chk
%nproc=1
#p opt=(calcall,loose,cartesian,nomicro,maxcycles=200) nosym external='./xtb.sh'

 Timestep 224 OO[C@H]1CO[CH]O1:[CH2][C@H](OO)OC=O: -1078.93 95.21 265.48 301.70

0  2
C           0.50171        -1.07917        -0.64837
C          -0.54523        -0.11861        -0.56207
O          -0.28551         1.06683        -1.53539
O           0.79269         1.88492        -0.96118
O          -0.67161         0.36746         0.94089
C          -0.26950        -0.72346         1.73797
H          -0.38395        -0.66585         2.85521
O           0.35261        -1.73212         1.15517
H           1.51470        -0.68754        -0.63914
H           0.35526        -1.97267        -1.24875
H          -1.43206        -0.67848        -0.86772
H           0.68804         1.70784        -0.02836

