%chk=mol.chk
%nproc=1
#p opt=(calcall,loose,ts,noeigen,cartesian,nomicro,maxcycles=200) nosym external='./xtb.sh'

 Timestep 6726 OO[C@H]1CO[CH]O1:OO[C@]12CO[C@H]2O1,[H]: -1000.50 86.27 262.78 319.02

0  2
C          -0.18884        -1.20431        -0.80898
C          -0.15211         0.06445        -0.09568
O          -1.02566         1.16107        -0.85743
O          -0.37241         2.36099        -0.33482
O           0.13595         0.03406         1.34781
C           1.21458        -0.77904         0.71497
H           1.81434        -1.13032         1.61181
O           0.70196        -2.02383         0.08543
H           0.30619        -1.11768        -1.80393
H          -1.20955        -1.68423        -0.88814
H          -1.49868        -0.57084         0.25641
H          -0.92948         3.04764        -0.73963

