%chk=mol.chk
%nproc=1
#p opt=(calcall,loose,cartesian,nomicro,maxcycles=200) nosym external='./xtb.sh'

 Timestep 4124 OO[C@H]1CO[CH]O1:[CH]OC[C@H](OO)[O]: -1062.82 85.93 296.73 355.93

0  2
C           0.47735        -0.40971         0.90719
C          -0.04389         0.14374        -0.35817
O           0.97347         1.21334        -0.95989
O           2.03407         0.35502        -1.45977
O          -1.34064         0.68119        -0.14354
C          -1.93585        -0.76775         0.98223
H          -2.48548        -1.47901         0.33118
O          -0.66717        -1.35069         1.41628
H           0.57058         0.38292         1.67624
H           1.40076        -1.01043         0.81557
H           0.00801        -0.83563        -0.88777
H           2.53752         0.99406        -1.97602

