%chk=mol.chk
%nproc=1
#p opt=(calcall,loose,ts,noeigen,cartesian,nomicro,maxcycles=200) nosym external='./xtb.sh'

 Timestep 11382 OO[C@H]1CO[CH]O1:O[O],[CH]OCC=O: -1011.97 87.41 266.25 335.24

0  2
C           0.27106        -0.75665        -0.78366
C          -0.40541         0.31821         0.00024
O           0.61196         1.56758         0.17089
O           0.76895         1.93989        -1.24154
O          -0.34486         0.14997         1.36916
C          -0.59059        -1.73818         1.07562
H          -1.54937        -2.05777         1.52330
O          -0.48579        -2.00804        -0.36632
H           1.32184        -0.90041        -0.47363
H           0.14631        -0.64861        -1.87335
H          -1.39387         0.68474        -0.42052
H           1.37899         2.67745        -1.15889

