%chk=mol.chk
%nproc=1
#p opt=(calcall,loose,ts,noeigen,cartesian,nomicro,maxcycles=200) nosym external='./xtb.sh'

 Timestep 100533 O=O,OO[C@H]1CO[CH]O1:OO[C@H]1CO[C]O1,O[O]: -1184.61 296.25 862.51 994.23

0  2
C           2.15801        -1.06195        -0.12034
C           2.44364         0.34831        -0.28012
O           2.13410         0.72015        -1.75323
O           2.01996         2.19519        -1.72106
O          -2.98258         0.55786        -0.03178
C          -2.35278        -0.76751        -0.02736
H          -1.29132        -0.62534         1.11416
O          -3.37676        -1.77318         0.16927
H           1.77133        -1.52481        -1.05820
H           1.54370        -1.35437         0.77560
H           1.91580         1.11272         0.34557
H           1.13647         2.28355        -2.09340
O           0.58852         0.01853         1.53254
O          -0.39156        -0.59984         2.18321

