%chk=mol.chk
%nproc=1
#p opt=(calcall,loose,ts,noeigen,cartesian,nomicro,maxcycles=200) nosym external='./xtb.sh'

 Timestep 31445 O=O,OO[C@H]1CO[CH]O1:OO[C]1CO[CH]O1,O[O]: -1174.95 291.62 349.59 545.45

0  2
C          -1.24634        -0.91164        -0.92151
C          -0.51052         0.13899        -0.26946
O          -1.29273         1.40069        -0.36841
O          -1.31747         1.94924         1.02333
O           0.78872         0.27106        -0.87811
C           1.10183        -1.17521        -1.30316
H           1.73796        -1.19144        -2.22066
O          -0.15833        -1.89154        -1.47424
H          -1.73697        -0.51948        -1.84000
H          -1.95641        -1.48364        -0.29791
H          -0.15934         0.08605         1.23996
H          -1.25261         2.88112         0.82753
O           1.07082         0.47107         1.75831
O           1.61307        -0.72393         1.95592

