%chk=mol.chk
%nproc=1
#p opt=(calcall,loose,cartesian,nomicro,maxcycles=200) nosym external='./xtb.sh'

 Timestep 87805 OO[C@H]1CO[CH]O1:OO[C@H]1[CH]OCO1: -1051.77 79.15 259.02 309.06

0  2
C          -0.14000        -0.02211        -1.39424
C          -0.46381         0.38648        -0.05974
O           0.47898         1.53670         0.29972
O           0.22571         1.73629         1.75119
O          -0.15776        -0.82675         0.82023
C           0.40551        -1.62645        -0.25517
H           0.76293        -2.65404        -0.03906
O          -0.44782        -1.43799        -1.52376
H           1.27180        -0.51747        -0.92845
H          -0.27675         0.58924        -2.30232
H          -1.50257         0.73197         0.17281
H           0.53363         0.88606         2.07699

