%chk=mol.chk
%nproc=1
#p opt=(calcall,loose,ts,noeigen,cartesian,nomicro,maxcycles=200) nosym external='./xtb.sh'

 Timestep 1268 OO[C@H]1CO[CH]O1:O[O],[CH]1O[CH]CO1: -1069.11 107.26 272.78 296.66

0  2
C           0.11522        -1.19408        -0.67194
C          -0.79862        -0.07893        -0.37970
O          -0.22947         1.40963        -1.46312
O           0.92804         1.84717        -0.79571
O          -0.79684         0.25414         1.02848
C           0.16512        -0.76209         1.70670
H          -0.23952        -1.14511         2.66934
O           0.52086        -1.81008         0.76063
H           1.08727        -0.85517        -1.09097
H          -0.31972        -2.02494        -1.26460
H          -1.82556        -0.20289        -0.76102
H           0.76606         1.48284         0.09820

