%chk=mol.chk
%nproc=1
#p opt=(calcall,loose,cartesian,nomicro,maxcycles=200) nosym external='./xtb.sh'

 Timestep 8833 OO[C@H]1CO[CH]O1:[CH2]O[CH]O[CH]OO: -1023.24 82.98 311.03 371.05

0  2
C          -0.16997        -0.96305         1.41772
C           0.44420         0.17766         0.09070
O           0.42588         1.59782         0.36693
O           1.47033         2.21751        -0.58648
O          -0.36611        -0.12616        -1.06278
C          -1.31593        -1.32278        -0.67601
H          -1.40681        -2.04149        -1.52036
O          -0.78598        -2.01146         0.58942
H          -0.98483        -0.48526         1.99912
H           0.61636        -1.39794         2.06078
H           1.49400        -0.08319        -0.19313
H           0.88196         2.49947        -1.26781

