%chk=mol.chk
%nproc=1
#p opt=(calcall,loose,cartesian,nomicro,maxcycles=200) nosym external='./xtb.sh'

 Timestep 135600 OO[C@H]1CO[CH]O1:[CH]O[C@H](C=O)OO,[H]: -967.02 100.54 256.96 321.58

0  2
C          -0.02462        -1.10613         0.54705
C          -0.18267         0.51125         0.23202
O          -0.95868         0.61979        -1.04702
O          -2.37757         0.49892        -0.58786
O           1.14507         1.06936         0.07175
C           1.93942        -0.02764         0.75062
H           1.57379        -0.02562         1.80845
O           1.08065        -1.62852         0.20600
H          -1.13403        -1.91502         0.17467
H           0.02718        -0.52967         1.58404
H          -0.74358         1.01442         1.04867
H          -2.73237        -0.00645        -1.30478

