%chk=mol.chk
%nproc=1
#p opt=(calcall,loose,ts,noeigen,cartesian,nomicro,maxcycles=200) nosym external='./xtb.sh'

 Timestep 5541 OO[C@H]1CO[CH]O1:[O]O[C@H]1COCO1: -1074.61 120.13 211.37 215.99

0  2
C          -0.11744         0.04494        -1.35699
C          -0.98698        -0.00906        -0.19127
O          -0.85540         1.41404         0.53741
O           0.48008         1.59720         0.88831
O          -0.56080        -1.16461         0.67123
C           0.87797        -1.18654         0.34814
H           1.50458        -1.94961         0.85309
O           1.10502        -0.91182        -1.03601
H           0.32179         1.04534        -1.56517
H          -0.58827        -0.38491        -2.26789
H          -2.07373        -0.12061        -0.40167
H           0.85290         0.28356         0.84408

