%chk=mol.chk
%nproc=1
#p opt=(calcall,loose,cartesian,nomicro,maxcycles=200) nosym external='./xtb.sh'

 Timestep 3135 O=O,OO[C@H]1CO[CH]O1:O[O],[O]O[C@H]1CO[CH]O1: -1181.05 268.06 424.57 553.17

0  2
C          -1.37745        -1.33486        -0.09957
C          -1.63137         0.08775         0.08565
O          -1.44225         0.80542        -1.31404
O          -0.08090         1.05680        -1.42227
O          -0.63443         0.64181         1.07004
C          -0.16752        -0.53194         1.84996
H           0.91674        -0.45264         2.10657
O          -0.48625        -1.75743         1.12352
H          -0.75399        -1.57997        -0.98843
H          -2.28558        -1.97636        -0.05488
H          -2.65609         0.32023         0.46600
H           1.16166         1.07229        -0.76289
O           2.83299        -0.18891        -0.71791
O           2.42340         0.94284        -0.16597

