%chk=mol.chk
%nproc=1
#p opt=(calcall,loose,cartesian,nomicro,maxcycles=200) nosym external='./xtb.sh'

 Timestep 88 OO[C@H]1CO[CH]O1:[OH],[O][C@H]1CO[CH]O1: -1079.59 103.58 241.16 266.88

0  2
C           0.60436        -0.93098        -0.45193
C          -0.70992        -0.25054        -0.37793
O          -0.83661         0.68416        -1.45824
O           0.60227         1.53448        -1.26769
O          -0.69182         0.45709         1.03405
C          -0.01072        -0.53472         1.84714
H           0.42992        -0.14320         2.79533
O           0.92122        -1.30793         1.02011
H           1.44082        -0.25670        -0.74590
H           0.60763        -1.87067        -1.04043
H          -1.59755        -0.94577        -0.38394
H           0.58165         1.95654        -2.08228

