%chk=mol.chk
%nproc=1
#p opt=(calcall,loose,cartesian,nomicro,maxcycles=200) nosym external='./xtb.sh'

 Timestep 53041 OO[C@H]1CO[CH]O1:OO[C@H]1O[CH][C@H]1[O],[H]: -956.07 100.97 304.21 360.01

0  2
C          -0.22208        -0.66037        -0.84506
C          -0.26449         0.42304         0.20911
O           0.29481         1.87693        -0.38672
O           1.64196         2.01008         0.11129
O          -0.60467        -0.43708         1.45102
C          -1.03895        -1.44539         0.52036
H          -0.96904        -2.43425         1.01953
O          -0.16404        -2.14555        -1.04517
H           1.11313         0.01279        -0.62355
H          -0.82678        -0.29890        -1.73711
H          -1.27695         0.60361        -0.25255
H           1.59715         1.46372         0.90160

