%chk=mol.chk
%nproc=1
#p opt=(calcall,loose,ts,noeigen,cartesian,nomicro,maxcycles=200) nosym external='./xtb.sh'

 Timestep 24585 OO[C@H]1CO[CH]O1:[CH]=O,[O]C[CH]OO: -1028.66 103.51 283.69 349.36

0  2
C           0.25649         0.59110         1.05262
C          -0.62569         0.21892        -0.03417
O          -0.91724        -1.21201         0.00098
O          -1.81503        -1.38266         1.20532
O           0.25625         0.63540        -1.69754
C           1.58604         0.81680        -1.33173
H           1.98258         1.82565        -1.58144
O           1.67902         0.60038         0.58026
H           0.17281         0.12862         2.07259
H          -0.15418         1.61939         0.94791
H          -1.57444         0.77588        -0.06647
H          -2.27404        -2.16669         0.94510

