%chk=mol.chk
%nproc=1
#p opt=(calcall,loose,ts,noeigen,cartesian,nomicro,maxcycles=200) nosym external='./xtb.sh'

 Timestep 5746 OO[C@H]1CO[CH]O1:[CH]OCC([O])[O],[OH]: -1028.15 94.72 297.45 333.10

0  2
C           0.92191        -0.50049        -0.97528
C           0.13016         0.55205        -0.28360
O           0.59013         0.56922         1.17169
O           0.34555         2.19555         1.54558
O          -1.29337         0.26429        -0.49960
C          -1.15916        -1.64726        -0.71316
H          -1.68030        -2.12525         0.14263
O           0.28154        -1.88360        -0.66689
H           1.98022        -0.55312        -0.65952
H           0.83347        -0.38577        -2.07369
H           0.28649         1.61898        -0.63651
H           1.06237         2.27619         2.11103

