%chk=mol.chk
%nproc=1
#p opt=(calcall,loose,cartesian,nomicro,maxcycles=200) nosym external='./xtb.sh'

 Timestep 37887 OO[C@H]1CO[CH]O1:OO[C@H]([O])[CH2],[CH]=O: -1015.83 99.26 264.58 301.81

0  2
C           0.20013        -0.30706        -1.04349
C          -0.21762         0.77179        -0.15939
O           0.96169         0.81511         0.95277
O           2.12661         1.09819         0.11804
O          -1.46883         0.42971         0.45357
C          -1.25985        -1.48670         0.38427
H          -0.57375        -1.76087         1.22922
O          -0.86313        -1.61207        -0.81392
H           1.18859        -0.73707        -0.81357
H           0.09654        -0.06716        -2.11723
H          -0.25802         1.79567        -0.62302
H           2.75871         1.34435         0.80323

