%chk=mol.chk
%nproc=1
#p opt=(calcall,loose,cartesian,nomicro,maxcycles=200) nosym external='./xtb.sh'

 Timestep 11765 OO[C@H]1CO[CH]O1:OOC=COC=O,[H]: -1032.04 76.82 288.12 332.12

0  2
C          -0.79806        -0.51814        -0.32803
C          -0.05055        -0.06934         0.39882
O          -0.41168         1.44775         0.82690
O          -1.32025         1.00338         1.89567
O           1.54909        -0.21867        -0.15263
C           1.35539        -0.92923        -1.37747
H           1.75687        -1.97540        -1.31048
O          -0.04366        -0.94306        -1.72050
H          -1.72753         0.07254        -0.59593
H          -0.98045        -1.60044         0.22575
H          -0.07257        -0.69071         1.34119
H          -1.41728         1.80243         2.42437

