%chk=mol.chk
%nproc=1
#p opt=(calcall,loose,ts,noeigen,cartesian,nomicro,maxcycles=200) nosym external='./xtb.sh'

 Timestep 63016 OO[C@H]1CO[CH]O1:[CH]O[C@H](C[O])[O],[OH]: -994.88 104.51 296.18 357.98

0  2
C          -0.64170        -1.06275        -0.30190
C          -0.11620         0.06093         0.66738
O          -0.39367         1.39961         0.22291
O          -1.83006         2.17975        -0.17538
O           1.44959        -0.08110         0.72287
C           1.57894        -0.66402        -0.60252
H           2.57658        -1.13649        -0.72500
O           0.32956        -2.13246        -0.59002
H          -0.87321        -0.60903        -1.29800
H          -1.54479        -1.57616         0.10630
H          -0.49119        -0.03760         1.72418
H          -2.39123         1.53154         0.15413

