%chk=mol.chk
%nproc=1
#p opt=(calcall,loose,ts,noeigen,cartesian,nomicro,maxcycles=200) nosym external='./xtb.sh'

 Timestep 14335 OO[C@H]1CO[CH]O1:O[O],[O]C[C@H]1[CH]O1: -1013.69 112.46 234.43 302.63

0  2
C           0.05506        -1.12047        -0.18728
C           0.02049         0.28829         0.58506
O          -1.37967         0.86372        -0.33005
O          -2.28502        -0.15129         0.10168
O           1.17624         1.28944         0.30528
C           1.75775        -0.00239         0.55020
H           1.40698        -0.46914         1.49124
O           1.27585        -1.15619        -0.92078
H          -0.75396        -1.26452        -0.96245
H           0.05662        -1.98267         0.53349
H          -0.34806         0.30040         1.63289
H          -2.95660        -0.05942        -0.59854

