%chk=mol.chk
%nproc=1
#p opt=(calcall,loose,ts,noeigen,cartesian,nomicro,maxcycles=200) nosym external='./xtb.sh'

 Timestep 52807 OO[C@H]1CO[CH]O1:OOC(=C)OC=O,[H]: -1008.63 73.92 294.56 336.07

0  2
C           0.99061        -0.07250         0.54281
C          -0.00208        -0.32264         0.02355
O           0.12593        -1.38633        -1.05698
O          -1.04777        -2.25152        -0.81267
O          -0.69260         0.98592        -0.38709
C          -0.10849         2.02318         0.49372
H          -0.89055         2.50533         1.14222
O           0.97681         1.47764         1.24646
H           1.84157         0.04355        -0.20785
H           1.27894        -0.76459         1.39755
H          -1.10137        -0.73494         1.06389
H          -1.49339        -1.80837         0.00522

