%chk=mol.chk
%nproc=1
#p opt=(calcall,loose,ts,noeigen,cartesian,nomicro,maxcycles=200) nosym external='./xtb.sh'

 Timestep 140018 OO[C@H]1CO[CH]O1:[H],[O]O[CH]COC=O: -1016.57 83.19 322.99 381.28

0  2
C           1.25461        -0.32505         0.42930
C           0.05691         0.49570         0.26528
O          -0.94748         0.33576         1.41622
O          -1.35246         1.66849         1.70605
O          -0.61671        -0.28802        -1.36330
C           0.40856        -1.00373        -1.78721
H           0.36353        -1.55362        -2.76603
O           1.55451        -1.10939        -1.00228
H           1.09225        -1.15980         1.14041
H           2.18538         0.23404         0.64890
H           0.19470         1.55127         0.00156
H          -2.71193         1.22220         1.98266

