%chk=mol.chk
%nproc=1
#p opt=(calcall,loose,cartesian,nomicro,maxcycles=200) nosym external='./xtb.sh'

 Timestep 9268 OO[C@H]1CO[CH]O1:O[O],[O][C@H]1C[CH]O1: -1026.94 94.35 274.22 305.26

0  2
C           0.96499        -0.00457         0.74079
C          -0.42074         0.52648         0.36096
O          -1.22954        -1.10128        -0.27974
O          -1.74575        -1.49632         0.96401
O          -0.16911         1.48256        -0.63748
C           1.34703         1.19238        -0.42872
H           1.91141         1.87465        -1.10622
O           1.65734        -0.17571        -0.75816
H           0.92484        -1.07581         1.11313
H           1.59845         0.63509         1.43299
H          -1.07541         0.87567         1.17671
H          -2.29230        -2.24876         0.65185

