%chk=mol.chk
%nproc=1
#p opt=(calcall,loose,ts,noeigen,cartesian,nomicro,maxcycles=200) nosym external='./xtb.sh'

 Timestep 8338 OO[C@H]1CO[CH]O1:C1O[C@H]2[C@H]1O2,O[O]: -1042.20 107.83 267.21 282.77

0  2
C          -0.66810        -0.76907         1.22325
C          -0.76229         0.36494         0.29860
O          -0.62052        -0.22279        -1.30271
O          -0.04253        -0.25712        -2.60893
O           0.25684         1.44751         0.82136
C           0.95619         0.25033         0.51843
H           2.02682         0.47294         0.27779
O           0.84369        -0.82069         1.48964
H          -0.97247        -1.76496         0.83842
H          -1.14997        -0.56115         2.20034
H          -1.76886         0.85388         0.28934
H           0.57221         0.50058        -2.51140

