%chk=mol.chk
%nproc=1
#p opt=(calcall,loose,cartesian,nomicro,maxcycles=200) nosym external='./xtb.sh'

 Timestep 118 OO[C@H]1CO[CH]O1:OO[CH]COC=O: -1074.45 100.87 253.34 296.96

0  2
C           0.35358        -1.22734        -0.25061
C          -0.62227        -0.23420        -0.58228
O          -0.29736         0.55319        -1.77947
O           0.87070         1.43098        -1.44699
O          -0.52701         0.78166         1.04797
C          -0.17968        -0.18695         1.87818
H          -0.34052        -0.09027         2.98403
O           0.26770        -1.40342         1.35436
H           1.18737        -0.55653        -0.45784
H           0.38038        -2.22651        -0.73693
H          -1.64755        -0.62321        -0.65320
H           0.77806         1.51606        -0.51054

