%chk=mol.chk
%nproc=1
#p opt=(calcall,loose,cartesian,nomicro,maxcycles=200) nosym external='./xtb.sh'

 Timestep 13769 OO[C@H]1CO[CH]O1:OOC=C,[O]C=O: -1050.76 81.84 261.69 287.22

0  2
C           0.15137        -0.91866        -0.48129
C          -0.65229        -0.14592        -0.22892
O          -0.96233         0.87657        -1.45699
O           0.40731         1.40011        -1.50069
O          -0.08605         0.56167         1.07936
C           0.43583        -0.49678         1.83922
H           0.91751        -0.32490         2.83356
O           0.65987        -1.60356         1.10000
H           1.10654        -0.45224        -0.82753
H          -0.21163        -1.78431        -1.08383
H          -1.64246        -0.61393         0.03957
H           0.30673         2.18124        -2.05918

