%chk=mol.chk
%nproc=1
#p opt=(calcall,loose,cartesian,nomicro,maxcycles=200) nosym external='./xtb.sh'

 Timestep 2588 OO[C@H]1CO[CH]O1:[CH]O[C@H](OO)C[O]: -1045.45 95.54 257.52 316.70

0  2
C          -0.91185         0.12418         1.02015
C           0.35787         0.29131         0.19152
O           0.24012         1.61353        -0.62831
O          -0.13831         1.17685        -1.97462
O           0.53727        -0.89742        -0.69981
C           0.51214        -1.71807         0.52453
H           1.52198        -1.88545         0.94285
O          -0.61179        -0.99267         1.91456
H          -1.78048        -0.20570         0.38073
H          -1.19496         1.00729         1.64982
H           1.23375         0.43928         0.86704
H           0.28481         1.87428        -2.49531

