%chk=mol.chk
%nproc=1
#p opt=(calcall,loose,ts,noeigen,cartesian,nomicro,maxcycles=200) nosym external='./xtb.sh'

 Timestep 90242 OO[C@H]1CO[CH]O1:O[O],[CH]1OC=CO1,[H]: -1021.61 82.64 274.27 311.15

0  2
C           0.49212        -0.15437         0.79861
C           0.28844        -0.36480        -0.31039
O           1.56184         0.63628        -1.03622
O           0.84371         1.88553        -0.92102
O          -1.24794        -0.32690        -0.55802
C          -1.69317        -0.96529         0.67858
H          -2.18447        -1.95695         0.50939
O          -0.56421        -1.05889         1.58393
H           0.08689         0.87599         0.95207
H           1.61627        -0.30295         1.62629
H           0.62495        -1.38402        -0.62674
H           1.31032         2.42461        -1.58208

