%chk=mol.chk
%nproc=1
#p opt=(calcall,loose,cartesian,nomicro,maxcycles=200) nosym external='./xtb.sh'

 Timestep 9431 OO[C@H]1CO[CH]O1:O[O],[CH]COC=O: -1032.46 109.84 330.68 381.78

0  2
C          -0.61703        -1.39122        -0.42659
C          -0.80531         0.05462        -0.33871
O          -0.39074         1.32946        -1.71897
O           0.84317         1.97300        -1.43826
O          -0.06242         0.37793         1.37647
C           0.46886        -0.78421         1.79262
H           1.06259        -0.79840         2.74398
O           0.38819        -1.89585         1.02313
H          -0.03520        -1.81082        -1.26139
H          -1.53999        -1.95982        -0.20529
H          -1.85904         0.33635        -0.21671
H           1.38185         1.18106        -1.27607

