%chk=mol.chk
%nproc=1
#p opt=(calcall,loose,ts,noeigen,cartesian,nomicro,maxcycles=200) nosym external='./xtb.sh'

 Timestep 2128 OO[C@H]1CO[CH]O1:OO[C@H]1CO[C@H]1[O]: -1042.88 99.96 262.33 315.39

0  2
C          -1.25682         0.34962         0.66483
C           0.23447        -0.01545         0.52631
O           0.88317         1.00628        -0.49093
O           1.75560         1.85871         0.32562
O           0.53553        -1.68288        -0.16238
C          -0.59011        -1.02517        -0.70692
H          -0.54772        -0.84770        -1.80965
O          -1.89256        -0.87377        -0.10298
H          -1.54041         1.22943         0.03882
H          -1.71361         0.40380         1.66803
H           0.81675        -0.05870         1.46263
H           1.85470         2.60932        -0.29472

