%chk=mol.chk
%nproc=1
#p opt=(calcall,loose,cartesian,nomicro,maxcycles=200) nosym external='./xtb.sh'

 Timestep 74559 OO[C@H]1CO[CH]O1:O=COCC=O,[OH]: -1025.98 85.02 326.70 391.81

0  2
C           0.28081        -0.42683        -1.11440
C          -0.29829         0.35691        -0.01690
O          -0.36495         1.78720        -0.52366
O          -1.79565         2.15157         0.28022
O           0.01505        -1.08721         1.21680
C           1.02722        -1.75472         0.68669
H           1.56463        -2.55958         1.24959
O           1.47660        -1.37367        -0.58284
H           0.73780         0.17735        -1.92256
H          -0.46105        -1.15253        -1.50125
H          -1.37506         0.18801         0.23055
H          -1.87831         1.63177         1.04369

