%chk=mol.chk
%nproc=1
#p opt=(calcall,loose,cartesian,nomicro,maxcycles=200) nosym external='./xtb.sh'

 Timestep 22897 OO[C@H]1CO[CH]O1:OOC(=C)OC=O,[H]: -1034.25 88.38 255.44 285.21

0  2
C          -0.39820         1.03742        -0.16674
C           0.26770         0.35042         0.46971
O           1.81402         0.46671         0.18029
O           1.80408        -0.28415        -1.09537
O          -0.27159        -1.09380         0.53395
C          -1.71164        -0.88123         0.42930
H          -2.27938        -1.72466        -0.03281
O          -1.96161         0.40564        -0.12880
H          -0.14252         0.98201        -1.26745
H          -0.47933         2.09568         0.22008
H           0.12557         0.94136         1.76628
H           2.74350        -0.30760        -1.31682

