%chk=mol.chk
%nproc=1
#p opt=(calcall,loose,cartesian,nomicro,maxcycles=200) nosym external='./xtb.sh'

 Timestep 13436 OO[C@H]1CO[CH]O1:[CH]OC[C@H](OO)[O]: -1058.20 82.46 301.38 357.75

0  2
C          -1.23537        -0.59985         0.38811
C           0.08272         0.08313         0.57033
O          -0.19987         1.66044         0.37918
O           1.06565         2.33209         0.61377
O           1.07995        -0.35162        -0.35381
C           0.06903        -1.66425        -1.33522
H           0.69931        -2.57432        -1.41959
O          -1.08801        -1.88537        -0.47635
H          -1.93397         0.03455        -0.19434
H          -1.69226        -0.91713         1.34489
H           0.54958        -0.00225         1.59962
H           1.67571         1.58310         0.57298

