%chk=mol.chk
%nproc=1
#p opt=(calcall,loose,cartesian,nomicro,maxcycles=200) nosym external='./xtb.sh'

 Timestep 261 OO[C@H]1CO[CH]O1:OO[CH]O[C@H]1CO1: -1035.87 99.90 236.99 250.25

0  2
C           0.12511        -1.00020        -0.66259
C          -0.03529         0.74931        -0.65952
O           1.28424         1.17503        -0.20233
O           1.69347         0.37116         1.01450
O          -1.01138         0.80821         0.37191
C          -1.07958        -0.76681         0.58291
H          -0.96796        -1.24529         1.56628
O          -1.37450        -1.47195        -0.61080
H           0.76641        -1.47614         0.11458
H           0.48198        -1.31691        -1.67023
H          -0.33611         1.29211        -1.57953
H           2.45282         0.86763         1.27764

