%chk=mol.chk
%nproc=1
#p opt=(calcall,loose,ts,noeigen,cartesian,nomicro,maxcycles=200) nosym external='./xtb.sh'

 Timestep 292 OO[C@H]1CO[CH]O1:[CH2]O[CH]O[CH]OO: -1015.93 102.31 256.70 306.17

0  2
C           0.10100        -1.58200        -0.63739
C           0.17436         0.25991        -0.78875
O           1.46770         0.85974        -0.41995
O           1.42493         1.61276         0.86708
O          -0.88175         0.76749         0.00240
C          -1.42098        -0.46381         0.84908
H          -2.51000        -0.36512         1.04115
O          -1.10628        -1.79523         0.06345
H           0.93536        -1.18018        -0.04982
H           0.31255        -2.21048        -1.51137
H           0.03448         0.52247        -1.86534
H           0.52047         1.58248         1.12029

