%chk=mol.chk
%nproc=1
#p opt=(calcall,loose,ts,noeigen,cartesian,nomicro,maxcycles=200) nosym external='./xtb.sh'

 Timestep 29470 OO[C@H]1CO[CH]O1:O=O,[CH]1O[CH]CO1,[H]: -1006.80 112.56 314.05 332.32

0  2
C           1.07352         0.68784         0.74160
C           0.11426        -0.41458         0.93172
O           0.51048        -1.33655        -0.71341
O           0.42087        -2.07915        -1.83641
O          -1.25766         0.11293         0.86611
C          -1.12655         1.43003         0.10468
H          -1.92905         2.16094         0.35542
O           0.22410         1.97050         0.27066
H           1.59656         0.98298         1.67092
H           1.80185         0.51078        -0.08102
H           0.26762        -1.16798         1.71963
H          -0.84511        -1.63638        -2.42297

