%chk=mol.chk
%nproc=1
#p opt=(calcall,loose,cartesian,nomicro,maxcycles=200) nosym external='./xtb.sh'

 Timestep 2036 OO[C@H]1CO[CH]O1:[CH2][C@H](OO)OC=O: -1102.91 92.50 258.92 304.12

0  2
C           0.32763        -1.13508         0.08157
C           0.10028         0.05582        -0.71236
O           0.92467         1.19366        -0.02462
O           2.32252         0.76957        -0.24515
O          -1.35906         0.40320        -0.66156
C          -1.77854        -0.14609         0.65339
H          -2.87582        -0.29708         0.76744
O          -0.99651        -1.32669         0.94988
H           1.15576        -1.03612         0.81211
H           0.42104        -2.06568        -0.51356
H           0.44727        -0.01422        -1.76813
H           2.79098         1.51210         0.13873

