%chk=mol.chk
%nproc=1
#p opt=(calcall,loose,ts,noeigen,cartesian,nomicro,maxcycles=200) nosym external='./xtb.sh'

 Timestep 22378 O=O,OO[C@H]1CO[CH]O1:O[O],[O]O[C@H]1CO[CH]O1: -1169.89 149.45 572.11 625.21

0  2
C           0.64636        -0.69574         0.58986
C           0.77002         0.39303        -0.35925
O          -0.52293         0.40214        -1.22595
O          -1.60854         0.33111        -0.25443
O           1.94828         0.07930        -1.23700
C           1.95367        -1.41104        -1.29908
H           2.97961        -1.84093        -1.45762
O           1.27949        -1.94600        -0.12048
H           1.32367        -0.50425         1.45092
H          -0.36462        -0.99948         0.94423
H           0.88933         1.41962         0.06619
H          -1.39868         1.20958         0.43786
O          -1.65474         1.73750         1.37225
O          -2.18769         0.72757         2.17678

