%chk=mol.chk
%nproc=1
#p opt=(calcall,loose,cartesian,nomicro,maxcycles=200) nosym external='./xtb.sh'

 Timestep 8616 OO[C@H]1CO[CH]O1:O=COCC=O,[OH]: -1053.15 85.97 300.58 351.67

0  2
C          -0.11496        -0.98660        -0.19847
C           0.22056         0.37125        -0.57284
O           1.54389         0.71809        -0.09311
O           2.48363        -0.54029        -0.69232
O          -1.49884         1.11266        -0.12546
C          -1.91347         0.27563         0.80850
H          -2.83947         0.48216         1.41689
O          -1.20507        -0.90878         1.01467
H           0.71391        -1.61665         0.19390
H          -0.67272        -1.47497        -1.02148
H           0.19948         0.58537        -1.65037
H           3.13061         0.01580        -1.02739

