%chk=mol.chk
%nproc=1
#p opt=(calcall,loose,ts,noeigen,cartesian,nomicro,maxcycles=200) nosym external='./xtb.sh'

 Timestep 2782 OO[C@H]1CO[CH]O1:OOC1=CO[CH]O1,[H][H]: -1009.53 88.28 252.97 319.10

0  2
C           0.35006         0.39431         0.83956
C          -0.11070        -0.49948        -0.15044
O           0.99011        -0.86383        -1.10321
O           2.17223        -0.96710        -0.16354
O          -1.33082        -0.07994        -0.76743
C          -1.85885         0.96015         0.24983
H          -2.26584         1.85159        -0.29507
O          -0.68053         1.37866         1.13139
H           0.20610        -0.88435         1.71569
H           1.35463         0.85533         0.81207
H          -0.36867        -1.68519         0.82141
H           2.10068        -1.87552         0.08460

