%chk=mol.chk
%nproc=1
#p opt=(calcall,loose,ts,noeigen,cartesian,nomicro,maxcycles=200) nosym external='./xtb.sh'

 Timestep 348342 OO[C@H]1CO[CH]O1:OO[C@H]1CO1,[CH]=O: -984.36 120.04 245.73 329.40

0  2
C           1.40106         0.30245         0.80977
C           0.24560        -0.10676         0.11843
O           0.77755        -1.11000        -1.03899
O          -0.30661        -2.08242        -1.10576
O          -1.12999         0.95738        -0.58583
C          -1.40114         1.28513         0.71776
H          -1.87253         0.43401         1.28074
O           0.36123         1.29015         1.35049
H           1.77889        -0.35304         1.62173
H           2.19745         0.84584         0.26105
H          -0.43049        -0.76837         0.71538
H           0.12667        -2.80291        -1.58790

