%chk=mol.chk
%nproc=1
#p opt=(calcall,loose,cartesian,nomicro,maxcycles=200) nosym external='./xtb.sh'

 Timestep 40602 OO[C@H]1CO[CH]O1:[CH]O[C@H](C[O])[O],[OH]: -977.56 105.47 326.60 382.65

0  2
C          -0.95247         0.80110         0.74376
C          -0.08154        -0.29512         0.14796
O           0.03768        -2.00268        -0.16222
O          -0.90894        -2.00504        -1.55053
O           1.36108         0.13497         0.37163
C           1.24314         1.56744         0.03217
H           2.00993         2.17146         0.55588
O          -0.46712         2.24415         0.59929
H          -0.96020         0.67616         1.85527
H          -2.00218         0.81157         0.36999
H          -0.37560         0.04703        -0.86162
H          -1.52152        -2.56283        -1.15386

