%chk=mol.chk
%nproc=1
#p opt=(calcall,loose,cartesian,nomicro,maxcycles=200) nosym external='./xtb.sh'

 Timestep 5072 OO[C@H]1CO[CH]O1:[CH]O[C@H](OO)C[O]: -1060.63 112.22 239.97 286.21

0  2
C           0.03334        -1.26165        -0.00818
C          -0.28339         0.00054        -0.70926
O           0.89310         0.95525        -0.43263
O           2.00770         0.37870        -1.22426
O          -1.54239         0.57019        -0.15410
C          -1.54546         0.24053         1.29949
H          -1.21972         1.11498         1.89600
O          -0.10472        -1.02598         1.45369
H           1.07245        -1.64874        -0.18602
H          -0.73602        -2.03886        -0.26139
H          -0.35936        -0.11334        -1.81441
H           2.73610         0.90970        -0.89672

