%chk=mol.chk
%nproc=1
#p opt=(calcall,loose,cartesian,nomicro,maxcycles=200) nosym external='./xtb.sh'

 Timestep 63 OO[C@H]1CO[CH]O1:O[O],[CH]1O[CH]CO1: -1095.06 97.17 258.44 286.58

0  2
C           0.10899        -0.73458        -0.98039
C          -0.13662         0.60911        -0.49284
O           1.41840         1.28368        -0.24490
O           1.91814         0.40088         0.76503
O          -0.91226         0.54525         0.74504
C          -1.79761        -0.66709         0.47805
H          -2.14210        -1.15962         1.41667
O          -1.11520        -1.57297        -0.43868
H           0.98391        -1.22495        -0.49827
H           0.13085        -0.84910        -2.08269
H          -0.62771         1.28845        -1.21644
H           2.62396         0.96427         1.12164

