%chk=mol.chk
%nproc=1
#p opt=(calcall,loose,ts,noeigen,cartesian,nomicro,maxcycles=200) nosym external='./xtb.sh'

 Timestep 188690 OO[C@H]1CO[CH]O1:OO[CH]CO[C]=O,[H]: -1008.14 98.71 241.58 280.16

0  2
C          -0.01171        -0.15957         1.14934
C           0.02387         0.73905         0.03949
O          -1.37443         0.97771        -0.48559
O          -1.96115        -0.40216        -0.40149
O           0.96932         0.06097        -1.11263
C           1.77663        -0.36922        -0.23466
H          -3.79472        -1.17824        -0.40373
O           1.45426        -0.76800         1.07691
H          -0.11248         0.31827         2.15092
H          -0.66858        -1.05815         1.04265
H           0.47889         1.73097         0.25253
H          -2.73484        -0.23072         0.23221

