%chk=mol.chk
%nproc=1
#p opt=(calcall,loose,cartesian,nomicro,maxcycles=200) nosym external='./xtb.sh'

 Timestep 157531 OO[C@H]1CO[CH]O1:OOC=O,[CH2]O[CH]: -979.21 90.28 280.06 325.24

0  2
C          -1.19740         0.49970         0.64418
C           0.02778        -0.28631        -0.47768
O           0.20153        -1.84344        -0.13147
O           1.10516        -1.81537         0.99265
O           1.06417         0.44892        -0.51145
C           0.09012         1.83718        -0.58134
H           0.11362         2.24492        -1.60776
O          -1.40387         1.66853        -0.09412
H          -2.14089        -0.05658         0.77916
H          -0.70629         0.72045         1.60761
H          -0.91065        -0.11533        -1.07909
H           1.16089        -2.76143         1.18491

