%chk=mol.chk
%nproc=1
#p opt=(calcall,loose,ts,noeigen,cartesian,nomicro,maxcycles=200) nosym external='./xtb.sh'

 Timestep 16552 OO[C@H]1CO[CH]O1:OOC=C,[O]C=O: -1054.17 103.84 246.61 274.55

0  2
C           0.47641         0.98999        -0.45848
C           0.87058        -0.08323        -0.25042
O           0.66432        -1.00887        -1.42432
O          -0.83410        -1.14954        -1.46466
O          -0.03331        -0.60453         1.35400
C          -0.63346         0.52370         1.70641
H          -1.32140         0.60510         2.58757
O          -0.37413         1.59391         0.87854
H           1.27368         1.76218        -0.62054
H          -0.31194         1.05565        -1.25698
H           1.94110        -0.16774         0.04728
H          -0.92216        -1.74570        -2.22219

