%chk=mol.chk
%nproc=1
#p opt=(calcall,loose,cartesian,nomicro,maxcycles=200) nosym external='./xtb.sh'

 Timestep 61397 O=O,OO[C@H]1CO[CH]O1:OO[CH]O[CH]OCO[O]: -1143.77 266.03 369.81 599.87

0  2
C           0.54721         0.02098         0.82529
C          -0.94461         0.23322        -0.19946
O          -0.61101        -0.17485        -1.55825
O          -1.10282        -1.57917        -1.79643
O          -1.20520         1.62497        -0.15012
C          -0.68313         2.20350         1.21415
H          -0.29678         3.24485         1.05583
O           0.34235         1.31080         1.73781
H           0.55363        -0.66348         1.70328
H           1.53298         0.39114         0.46267
H          -1.79999        -0.35766         0.19688
H          -0.98257        -1.99554        -0.96368
O           2.37423        -1.51936         0.27177
O           1.07621        -1.54642        -0.04085

