%chk=mol.chk
%nproc=1
#p opt=(calcall,loose,cartesian,nomicro,maxcycles=200) nosym external='./xtb.sh'

 Timestep 191008 OO[C@H]1CO[CH]O1:OO[C@]12CO[C@H]2O1,[H]: -1035.94 84.57 256.52 323.67

0  2
C           0.94920        -1.19877         0.23536
C          -0.19248        -0.24979         0.03612
O          -0.63499        -0.35637        -1.48118
O          -1.94549         0.28631        -1.41033
O          -0.28509         1.25591         0.44165
C           0.75045         0.61492         1.17226
H           1.09920         1.40418         1.90448
O           1.71953        -0.45129         1.33208
H           0.68205        -2.20192         0.63213
H           1.63989        -1.26862        -0.63638
H          -1.39536        -0.65749         0.68139
H          -1.79389         0.99925        -2.04283

