%chk=mol.chk
%nproc=1
#p opt=(calcall,loose,ts,noeigen,cartesian,nomicro,maxcycles=200) nosym external='./xtb.sh'

 Timestep 94704 O=O,OO[C@H]1CO[CH]O1:OO[C@H]1[CH]O[CH]O1,O[O]: -1174.52 286.17 373.38 541.49

0  2
C           0.26382        -0.23936         0.52308
C          -0.17657         0.60266        -0.52796
O           0.14195         2.06485        -0.05769
O           1.59985         2.09731        -0.26578
O          -1.70037         0.43854        -0.60519
C          -2.07899        -0.31804         0.59450
H          -2.95509         0.11304         1.13512
O          -0.87924        -0.46485         1.46344
H           0.10201        -1.15387        -0.61045
H           1.25584        -0.16150         1.00851
H           0.29734         0.48059        -1.53593
H           1.76766         3.08876        -0.24583
O           0.55832        -2.25211        -0.79906
O           1.74517        -2.06699        -0.16267

