%chk=mol.chk
%nproc=1
#p opt=(calcall,loose,cartesian,nomicro,maxcycles=200) nosym external='./xtb.sh'

 Timestep 38415 OO[C@H]1CO[CH]O1:OO[C@H]1[CH]OCO1: -1025.44 75.27 277.75 319.75

0  2
C          -0.09951         1.34516        -0.28033
C           0.33683        -0.02306        -0.41070
O          -0.80994        -0.77202        -1.15569
O          -0.13267        -2.03163        -1.53136
O           0.45338        -0.56694         0.99808
C          -0.12520         0.63841         1.62298
H          -0.42788         0.64443         2.68646
O           0.49341         1.85779         1.00882
H          -0.41349         2.10146        -1.02025
H          -0.95272         0.78918         0.59108
H           1.28428        -0.26438        -0.95862
H          -0.89104        -2.61961        -1.60722

