%chk=mol.chk
%nproc=1
#p opt=(calcall,loose,cartesian,nomicro,maxcycles=200) nosym external='./xtb.sh'

 Timestep 2678 OO[C@H]1CO[CH]O1:C=COC=O,O[O]: -1049.92 82.07 459.04 494.84

0  2
C          -0.62459        -1.69595        -0.60286
C           0.35951        -2.28386        -0.45484
O          -0.04163         2.83740        -0.87529
O          -0.93265         2.72350         0.20363
O           0.96153        -1.89704         0.90239
C           0.74435        -0.43982         0.90934
H           0.52421        -0.03455         1.92779
O          -0.22950        -0.09859        -0.07485
H          -0.97719        -1.56523        -1.65793
H          -1.43816        -1.98899         0.11221
H           1.13150        -2.09380        -1.22660
H          -1.10398         1.75821         0.13850

