%chk=mol.chk
%nproc=1
#p opt=(calcall,loose,cartesian,nomicro,maxcycles=200) nosym external='./xtb.sh'

 Timestep 51 OO[C@H]1CO[CH]O1:[OH],[O][C@H]1CO[CH]O1: -1080.11 105.47 241.27 265.51

0  2
C           0.08491        -0.73948        -1.01105
C          -0.04338         0.65983        -0.53390
O           1.25395         1.25119        -0.39308
O           1.93268         0.22936         0.76863
O          -0.81233         0.53667         0.84158
C          -1.72102        -0.57071         0.58543
H          -2.07005        -1.09727         1.50441
O          -1.14698        -1.46714        -0.42741
H           0.95893        -1.26560        -0.57080
H           0.05103        -0.85605        -2.11285
H          -0.66903         1.32337        -1.20212
H           2.25967         0.91470         1.28061

