%chk=mol.chk
%nproc=1
#p opt=(calcall,loose,ts,noeigen,cartesian,nomicro,maxcycles=200) nosym external='./xtb.sh'

 Timestep 30582 OO[C@H]1CO[CH]O1:OO[C@H]1C[C@H](O1)[O]: -1044.54 86.33 268.45 299.68

0  2
C           0.63616         1.11870        -0.52787
C           0.52788        -0.34780         0.02665
O          -0.60595        -1.02141        -0.70564
O          -0.04367        -2.33955        -1.10876
O           0.14788        -0.08555         1.41704
C           0.27389         1.37534         1.10671
H           0.06490         2.01091         1.99112
O          -0.75386         1.76782        -0.00777
H           1.53325         1.77793        -0.07730
H           0.58285         1.16358        -1.66310
H           1.43807        -0.99738        -0.02596
H          -0.82596        -2.88430        -1.00801

