%chk=mol.chk
%nproc=1
#p opt=(calcall,loose,ts,noeigen,cartesian,nomicro,maxcycles=200) nosym external='./xtb.sh'

 Timestep 24370 OO[C@H]1CO[CH]O1:[CH2][C@H](OC=O)[O],[OH]: -1012.02 103.51 336.59 369.89

0  2
C          -1.46467         0.10857         0.50535
C          -0.37537         0.54454        -0.38858
O           0.37000        -0.05996        -1.50582
O           0.23446        -1.23188        -2.71111
O           0.88850         1.02094         0.70004
C           0.69809         0.28114         1.84913
H           1.51133         0.26751         2.62617
O          -0.39762        -0.44971         2.00504
H          -2.06286         0.91376         0.93776
H          -2.02735        -0.78718         0.23293
H          -0.66124         1.54436        -0.81159
H          -0.53540        -1.63255        -2.41333

