%chk=mol.chk
%nproc=1
#p opt=(calcall,loose,cartesian,nomicro,maxcycles=200) nosym external='./xtb.sh'

 Timestep 9337 OO[C@H]1CO[CH]O1:OO[C@H]1CO[C@H]1[O]: -1036.66 101.84 265.29 312.57

0  2
C           0.24095        -1.13820        -0.14949
C           0.07829         0.31956        -0.46409
O           1.50988         0.91239        -0.62894
O           2.17939         0.73774         0.66571
O          -1.53762         0.90531         0.39121
C          -1.64748        -0.27794        -0.25126
H          -2.40546        -0.35309        -1.07826
O          -1.18353        -1.53503         0.34487
H           0.93218        -1.44635         0.68422
H           0.44576        -1.73699        -1.07057
H          -0.30150         0.49222        -1.49349
H           1.78847        -0.08303         0.99785

