%chk=mol.chk
%nproc=1
#p opt=(calcall,loose,ts,noeigen,cartesian,nomicro,maxcycles=200) nosym external='./xtb.sh'

 Timestep 26052 OO[C@H]1CO[CH]O1:[H],[H],[O]O[C@H]1CO[C]O1: -983.32 105.97 226.08 269.32

0  2
C          -0.75860        -0.89761        -0.11654
C           0.07569        -0.14047         0.80570
O          -0.25449         1.40282         0.57012
O          -1.63302         1.47081         0.54150
O           1.50982        -0.32451         0.42961
C           1.32062        -0.45287        -1.04966
H           0.77298         0.83660        -1.79024
O           0.18072        -1.34191        -1.28452
H          -1.16074        -1.83734         0.32108
H          -1.55126        -0.32840        -0.71064
H          -0.06928        -0.35733         1.88806
H          -2.45951         0.29172         0.51238

