%chk=mol.chk
%nproc=1
#p opt=(calcall,loose,cartesian,nomicro,maxcycles=200) nosym external='./xtb.sh'

 Timestep 38506 O=O,OO[C@H]1CO[CH]O1:OO[C]1CO[CH]O1,O[O]: -1191.51 358.14 597.62 781.37

0  2
C           1.04072        -0.96072         2.23988
C           0.45341         0.09619         1.45579
O           0.99144         0.09102         0.09814
O           0.84666        -1.35785        -0.34258
O           0.51550         1.34558         2.13146
C           0.79463         0.96306        -3.31024
H           0.05942         1.43878        -2.62056
O           0.81636        -0.49231        -3.20125
H           0.58573        -1.97008         2.12702
H           2.14968        -0.98404         2.10642
H          -1.10603        -0.05871         1.21479
H           0.99972        -1.24463        -1.26948
O          -2.57632         0.31960        -0.19404
O          -2.48134         0.19774         1.12066

