%chk=mol.chk
%nproc=1
#p opt=(calcall,loose,cartesian,nomicro,maxcycles=200) nosym external='./xtb.sh'

 Timestep 68040 OO[C@H]1CO[CH]O1:OO[C]1COCO1: -1024.20 82.66 274.28 325.31

0  2
C           0.44514         1.34918        -0.36023
C          -0.24816         0.07380         0.00644
O          -1.37077         0.29839         1.03751
O          -2.20037        -0.90592         0.92127
O           0.78985        -0.89718         0.41407
C           1.25798        -0.59800        -1.02353
H           1.90578        -1.36999        -1.48201
O           1.64292         0.84150        -1.14450
H          -0.15491         2.00386        -1.03228
H           0.83471         1.93117         0.49752
H          -0.12609        -0.46778        -1.31145
H          -1.72778        -1.40107         0.24544

