%chk=mol.chk
%nproc=1
#p opt=(calcall,loose,ts,noeigen,cartesian,nomicro,maxcycles=200) nosym external='./xtb.sh'

 Timestep 111930 OO[C@H]1CO[CH]O1:OO[C@H]([O])[CH2],[CH]=O: -1017.94 81.52 328.64 355.58

0  2
C           0.45454         0.63248         0.91514
C          -0.03085         0.62216        -0.37109
O          -1.53270         0.08614        -0.39124
O          -2.26394         1.33683        -0.60721
O           0.85203        -0.33755        -0.99909
C           1.67164        -1.58933         0.22032
H           2.75685        -1.70585        -0.00034
O           1.32163        -1.01941         1.38718
H           1.29121         1.32326         1.08903
H          -0.32610         0.67800         1.68827
H          -0.04119         1.60667        -0.92034
H          -2.88753         1.03543        -1.27681

