%chk=mol.chk
%nproc=1
#p opt=(calcall,loose,cartesian,nomicro,maxcycles=200) nosym external='./xtb.sh'

 Timestep 44455 O=O,OO[C@H]1CO[CH]O1:[O]O[C@H]1OC[C@H](O1)OO: -1227.75 159.46 524.43 575.54

0  2
C          -0.79329         0.50857        -1.48226
C           0.32755        -0.41580        -1.44399
O          -0.21517        -1.82699        -1.74089
O          -1.11903        -2.13273        -0.60707
O           0.92300        -0.37214        -0.04503
C          -0.09035         0.42444         0.61675
H          -0.94697        -0.25619         0.88274
O          -0.59355         1.45267        -0.22607
H          -1.76236        -0.00378        -1.28130
H          -0.84690         1.16192        -2.37788
H           1.14017        -0.23131        -2.18245
H          -1.03934        -3.09502        -0.58652
O           0.32034         0.89523         2.43116
O           1.31976         1.74858         2.27133

