%chk=mol.chk
%nproc=1
#p opt=(calcall,loose,ts,noeigen,cartesian,nomicro,maxcycles=200) nosym external='./xtb.sh'

 Timestep 83595 OO[C@H]1CO[CH]O1:[CH]=O,[O]C[CH]OO: -1005.20 111.16 283.35 377.97

0  2
C          -0.94236        -0.03934         0.67876
C           0.05980         0.03643        -0.45693
O           0.41214        -1.33184        -0.94496
O          -0.80662        -1.92054        -1.59943
O           1.64671         0.95103         0.14187
C           0.70242         1.59315         0.82847
H           1.08101         2.44823         1.44372
O          -0.97436         1.12623         1.64864
H          -1.99598        -0.15434         0.32161
H          -0.66875        -0.90065         1.33845
H          -0.31100         0.63290        -1.30585
H          -0.36712        -2.32191        -2.34614

