%chk=mol.chk
%nproc=1
#p opt=(calcall,loose,ts,noeigen,cartesian,nomicro,maxcycles=200) nosym external='./xtb.sh'

 Timestep 60413 O=O,OO[C@H]1CO[CH]O1:OO[C@H]1CO[C]O1,O[O]: -1180.92 231.83 439.47 618.62

0  2
C           0.00083        -0.84928         0.66837
C          -0.75173         0.38609         0.79341
O          -0.40477         1.26480        -0.43083
O          -1.57017         1.08297        -1.32468
O          -0.26390         1.07518         2.04119
C           1.08644         0.51978         2.33665
H           0.68210        -0.21939        -3.26968
O           1.33894        -0.60498         1.43543
H          -0.50550        -1.65903         1.23318
H           0.31862        -1.19888        -0.34726
H          -1.86124         0.27825         0.81598
H          -1.15776         1.27690        -2.17640
O           0.83598        -1.87098        -2.03675
O          -0.02881        -0.89349        -2.29969

