%chk=mol.chk
%nproc=1
#p opt=(calcall,loose,cartesian,nomicro,maxcycles=200) nosym external='./xtb.sh'

 Timestep 217499 OO[C@H]1CO[CH]O1:[H],[O]O[CH]COC=O: -954.19 165.95 366.66 433.25

0  2
C           1.23854        -0.68871         0.94617
C           0.38368        -1.28687        -0.09388
O           0.10639        -2.68223        -1.09516
O          -0.21177         2.95728        -1.45985
O          -1.18469        -0.17345        -0.02174
C          -0.74635         0.82291         0.71451
H          -1.43314         1.57373         1.16572
O           0.57389         0.77925         1.25894
H           1.00717        -1.28865         1.87538
H           2.33731        -0.59607         0.76052
H          -0.07150        -1.90139         0.72728
H          -0.90939         1.96578        -2.28327

