%chk=mol.chk
%nproc=1
#p opt=(calcall,loose,ts,noeigen,cartesian,nomicro,maxcycles=200) nosym external='./xtb.sh'

 Timestep 2347 OO[C@H]1CO[CH]O1:OO[CH]COC=O: -1040.65 79.66 339.45 409.66

0  2
C           0.69665        -1.23160        -0.22504
C           0.42202         0.20457        -0.11607
O           0.58290         1.66221         0.20664
O           2.00859         2.05020         0.40902
O          -1.49197         0.10146         0.11615
C          -1.77762        -1.17667        -0.13317
H          -2.72241        -1.45016        -0.64582
O          -0.73261        -2.07836        -0.19484
H           1.41304        -1.60950         0.52167
H           0.95974        -1.27985        -1.29778
H           0.30691         0.27524        -1.21477
H           2.06853         2.77639        -0.23239

