%chk=mol.chk
%nproc=1
#p opt=(calcall,loose,cartesian,nomicro,maxcycles=200) nosym external='./xtb.sh'

 Timestep 7436 OO[C@H]1CO[CH]O1:C1O[CH]OC1=O,[H],[OH]: -1007.98 87.20 286.12 356.89

0  2
C           1.18499         0.31697         0.10423
C          -0.30514        -0.28692        -0.21957
O          -0.61095        -0.54055        -1.42599
O           0.43884        -1.65754        -2.10170
O          -1.31067         0.51976         0.73315
C          -0.47543         0.85657         1.86288
H          -0.85634         1.70321         2.49116
O           0.93218         1.02053         1.43565
H           2.28176         0.21629        -0.00536
H           0.83542         1.03507        -0.67496
H           0.59340        -1.24547         0.37547
H           1.06243        -1.83241        -1.44051

