%chk=mol.chk
%nproc=1
#p opt=(calcall,loose,cartesian,nomicro,maxcycles=200) nosym external='./xtb.sh'

 Timestep 589 OO[C@H]1CO[CH]O1:[O]O[C@H]1COCO1: -1073.27 121.00 200.17 205.38

0  2
C          -0.32100         1.29962         0.11173
C           0.16984         0.24549         0.98626
O           1.63627        -0.07436         0.47815
O           1.52981        -0.34761        -0.91004
O          -0.72057        -0.95537         0.83765
C          -1.10058        -0.73837        -0.56123
H          -1.81231        -1.47940        -0.98589
O          -1.40232         0.63983        -0.81696
H           0.46374         1.68989        -0.57844
H          -0.83755         2.12855         0.64148
H           0.26450         0.48364         2.06983
H           0.28017        -0.73113        -1.01588

