%chk=mol.chk
%nproc=1
#p opt=(calcall,loose,cartesian,nomicro,maxcycles=200) nosym external='./xtb.sh'

 Timestep 9748 OO[C@H]1CO[CH]O1:OOC1=CO[CH]O1,[H],[H]: -1029.83 89.64 252.09 283.15

0  2
C          -0.94037         0.63555        -0.00758
C           0.08946         0.41840        -0.48194
O           0.04311        -0.44072        -1.80005
O          -0.14046        -1.78014        -1.19373
O           1.15971         0.01248         0.53267
C           0.54020         0.39097         1.80591
H           1.22024         0.95025         2.49297
O          -0.71274         1.04725         1.53268
H          -1.59764         1.41467        -0.48284
H          -1.42811        -0.54046         0.01198
H           0.31662         1.70270        -1.00145
H          -0.35629        -2.31502        -1.96839

