%chk=mol.chk
%nproc=1
#p opt=(calcall,loose,cartesian,nomicro,maxcycles=200) nosym external='./xtb.sh'

 Timestep 21290 OO[C@H]1CO[CH]O1:O[O],[CH]OCC=O: -1036.79 92.96 330.37 364.73

0  2
C           1.12946         0.70326        -0.14192
C           0.37416        -0.58377        -0.07627
O          -0.24288        -1.24649        -1.77372
O          -1.40052        -0.47603        -1.99766
O          -0.60793        -0.52230         0.93300
C          -0.09342         0.90927         2.11422
H           0.24758         0.42434         3.05370
O           1.03090         1.41766         1.35569
H           2.20484         0.61505        -0.37430
H           0.62374         1.44768        -0.78554
H           1.07013        -1.42945         0.12964
H          -1.58053        -0.18727        -1.08227

