%chk=mol.chk
%nproc=1
#p opt=(calcall,loose,cartesian,nomicro,maxcycles=200) nosym external='./xtb.sh'

 Timestep 57454 OO[C@H]1CO[CH]O1:C=O,[CH]O[CH]OO: -954.70 77.49 326.32 384.10

0  2
C           0.82764         0.77786         1.20902
C           0.25305        -0.46783         0.05496
O           0.83051        -1.13613        -1.14520
O          -0.06434        -2.24847        -1.55149
O          -0.99105         0.13226        -0.27852
C          -1.14629         1.55637         0.40985
H          -2.04025         1.56249         1.05671
O           0.32381         1.91995         1.47494
H           0.17417        -0.06332         1.73140
H           1.96733         0.69634         1.45497
H          -0.00969        -1.29886         0.75966
H          -0.87940        -1.98616        -1.13787

