%chk=mol.chk
%nproc=1
#p opt=(calcall,loose,cartesian,nomicro,maxcycles=200) nosym external='./xtb.sh'

 Timestep 23500 OO[C@H]1CO[CH]O1:OOC=COC=O,[H]: -1012.90 92.33 237.62 273.60

0  2
C           0.58747         0.66128        -0.45798
C           0.77617        -0.27510         0.13680
O          -0.05935        -1.51521        -0.49497
O           0.28821        -1.14543        -1.88122
O           0.01395         0.04344         1.69854
C          -0.86768         1.10050         1.36683
H          -0.71243         1.98746         2.04147
O          -0.79859         1.39153        -0.03091
H           1.36123         1.18945         0.37876
H           0.79656         0.80829        -1.56530
H           1.83034        -0.59188         0.32190
H          -0.36655        -1.65476        -2.38828

