%chk=mol.chk
%nproc=1
#p opt=(calcall,loose,ts,noeigen,cartesian,nomicro,maxcycles=200) nosym external='./xtb.sh'

 Timestep 26440 OO[C@H]1CO[CH]O1:O[O],[CH]1OC=CO1,[H]: -1007.27 92.94 272.37 301.62

0  2
C          -0.36839        -0.90070        -0.75002
C          -0.14119         0.22417        -0.66668
O           1.60718         0.87272        -0.87897
O           2.22601         0.40739         0.29717
O          -0.64215         0.82533         0.66411
C          -1.68977        -0.12923         1.02307
H          -1.77455        -0.30285         2.12326
O          -1.47350        -1.34672         0.25359
H          -0.76481        -1.15319        -1.75674
H           0.63589        -1.99679        -0.35496
H          -0.59397         0.82981        -1.48199
H           1.44267         0.18363         0.82966

