%chk=mol.chk
%nproc=1
#p opt=(calcall,loose,cartesian,nomicro,maxcycles=200) nosym external='./xtb.sh'

 Timestep 27684 OO[C@H]1CO[CH]O1:OO[C@H]1O[C@H]2[C@H]1O2,[H]: -1032.80 89.71 254.19 292.14

0  2
C           0.22623         0.76340        -0.90308
C           0.58330        -0.25809         0.21410
O          -0.40360        -1.41754         0.09044
O           0.23451        -2.35588        -0.85563
O           0.32769         0.51455         1.43606
C           0.09657         1.71138         0.52823
H          -0.09582         2.61454         1.15977
O          -1.04670         1.49277        -0.34608
H           1.03675         1.50732        -1.15318
H          -0.07468        -0.04650        -2.07730
H           1.61665        -0.67527         0.18703
H           0.81401        -1.78187        -1.35288

