%chk=mol.chk
%nproc=1
#p opt=(calcall,loose,cartesian,nomicro,maxcycles=200) nosym external='./xtb.sh'

 Timestep 8314 OO[C@H]1CO[CH]O1:O[O],[C]1O[CH]CO1,[H]: -989.80 90.04 349.54 414.75

0  2
C           0.20003         1.36693        -0.29605
C           0.28778         0.11116         0.44364
O           1.64420        -0.93527        -0.43628
O           1.95409        -2.05789         0.36574
O          -1.27612        -0.43760         0.43684
C          -2.20038         0.55412        -0.12099
H           3.17004         0.94193        -0.11171
O          -1.42722         1.74316        -0.46346
H           0.67564         2.25775         0.16626
H           0.50310         1.23751        -1.36045
H           0.59503         0.10580         1.49380
H           1.25101        -1.97354         1.03625

