%chk=mol.chk
%nproc=1
#p opt=(calcall,loose,ts,noeigen,cartesian,nomicro,maxcycles=200) nosym external='./xtb.sh'

 Timestep 98 OO[C@H]1CO[CH]O1:[OH],[O]C=C,[O]C=O: -990.08 69.72 344.86 387.20

0  2
C           0.30525        -0.22789         0.58992
C          -0.14112        -0.18529        -0.48163
O           0.97549         0.08445        -1.51497
O           2.17566        -1.08960        -1.58697
O          -1.80934         0.11293         0.15289
C          -1.62875         0.75558         1.32682
H          -2.46196         1.23399         1.89801
O          -0.33181         0.74817         1.79642
H          -0.00089        -1.25757         0.91275
H           1.41172        -0.03702         0.66567
H          -0.41087        -1.20794        -0.85513
H           2.88100        -0.52339        -1.42713

