%chk=mol.chk
%nproc=1
#p opt=(calcall,loose,ts,noeigen,cartesian,nomicro,maxcycles=200) nosym external='./xtb.sh'

 Timestep 851 OO[C@H]1CO[CH]O1:C1O[C@H]2[C@H]1O2,O[O]: -1058.52 122.06 224.31 255.83

0  2
C          -0.03739        -1.28794        -0.72857
C          -0.23113         0.26934        -0.78837
O           1.45701         0.91176        -0.64885
O           1.66829         0.66378         0.72839
O          -1.11286         1.10624         0.17843
C          -1.21367        -0.23176         0.61656
H          -1.87230        -0.16068         1.53617
O          -0.93600        -1.62749         0.50964
H          -0.46052        -1.85243        -1.58903
H           0.98747        -1.63454        -0.46022
H          -0.55020         0.60812        -1.79954
H           2.46997         1.20581         0.85849

