%chk=mol.chk
%nproc=1
#p opt=(calcall,loose,cartesian,nomicro,maxcycles=200) nosym external='./xtb.sh'

 Timestep 10250 OO[C@H]1CO[CH]O1:[CH2]O[C@H]1O[C@H]1OO: -1022.55 80.05 342.06 372.89

0  2
C           1.68840         0.80130         0.22072
C           0.36138        -0.33398         0.04006
O          -0.55964        -1.14943        -0.92219
O          -1.40906        -1.90148        -1.80963
O          -0.45121        -0.07908         1.32132
C          -0.37124         1.16658         0.58194
H          -1.22526         1.82262         0.87129
O           0.92354         1.91484         0.81598
H           2.11719         1.13568        -0.74037
H           2.47929         0.51486         0.94263
H           1.21409        -0.98687         0.33596
H          -0.83800        -2.66714        -2.01384

