%chk=mol.chk
%nproc=1
#P opt=(cartesian,calcall,loose,nomicro,maxcycles=300) nosym external='./gau_lmp.sh'

Title Card Required

0 2
C -1.330088   0.222039  -0.021707
C -0.490682  -0.867099  -0.398712
O -0.000093  -1.600516   0.781352
O  0.573255  -0.542574   1.691941
O  0.963551   0.065337  -1.252673
C  0.679077   1.311553  -0.925552
H  1.338332   2.162777  -1.239683
O -0.498300   1.581235  -0.220812
H -1.874685   0.260393   0.946871
H -1.942436   0.066093  -0.914878
H -0.842993  -1.579282  -1.158455
H  0.446044  -0.970433   2.534280


